NAME : amz1791.145814_88814.tour
COMMENT : Cost = 145814_88814
COMMENT : Found by LKH-AMZ [Keld Helsgaun] Sun May 11 15:00:24 2025
COMMENT : TW viol.: 0 #: 0
TYPE : TOUR
DIMENSION : 110
TOUR_SECTION
74
40
8
52
102
99
60
86
68
32
6
61
110
4
105
79
76
89
95
47
17
100
93
82
69
66
73
26
72
33
64
65
84
54
24
9
71
48
88
3
10
103
58
87
38
81
109
94
106
13
22
23
91
29
35
30
12
108
18
20
80
44
36
2
92
85
42
63
97
70
41
62
39
45
31
5
49
11
101
96
104
21
16
56
51
25
78
37
90
55
83
19
7
27
107
77
57
98
14
15
75
1
50
34
59
67
28
46
43
53
-1
EOF
